c 
p cnf 18 24
-1 0
-2 0
-3 0
-4 0
-5 0
-6 0
-7 0
-8 0
-9 0
-10 0
-11 0
-12 0
-13 -14 -15 0
-13 -14 16 0
-13 -15 -16 -18 0
-13 -15 -17 0
13 14 16 -17 18 0
13 15 -16 -18 0
-14 -15 16 17 0
-14 15 -17 18 0
-14 15 17 -18 0
-15 -16 -17 18 0
15 -16 -17 -18 0
15 16 17 -18 0